10	5
0	4	4	3	1	2
1	1	8
2	3	8	10	5
3	2	9	6
4	2	8	7
5	2	6	9
6	1	11
7	1	11
8	1	11
9	1	11
10	1	11
11	0
0	0	0	0	0	0	0
1	1	3	3	5	1	5
2	1	4	2	4	3	5
3	5	4	5	4	2	3
4	5	4	3	4	3	1
5	4	1	1	3	3	4
6	1	4	3	3	4	2
7	10	2	3	2	3	1
8	1	4	3	4	1	5
9	6	1	2	4	5	2
10	4	1	5	2	5	3
11	0	0	0	0	0	0
11	13	13	12	12
